c colouring generated by benchmark framework
p edge 100 1470
v 1 8
v 2 10
v 3 1
v 4 2
v 5 6
v 6 9
v 7 13
v 8 11
v 9 15
v 10 14
v 11 15
v 12 6
v 13 4
v 14 9
v 15 7
v 16 11
v 17 8
v 18 10
v 19 12
v 20 13
v 21 9
v 22 1
v 23 7
v 24 5
v 25 8
v 26 3
v 27 0
v 28 2
v 29 6
v 30 4
v 31 6
v 32 8
v 33 2
v 34 3
v 35 0
v 36 4
v 37 5
v 38 1
v 39 7
v 40 9
v 41 13
v 42 11
v 43 6
v 44 4
v 45 2
v 46 1
v 47 3
v 48 0
v 49 5
v 50 16
v 51 10
v 52 4
v 53 5
v 54 1
v 55 3
v 56 0
v 57 2
v 58 6
v 59 8
v 60 7
v 61 16
v 62 9
v 63 3
v 64 0
v 65 4
v 66 5
v 67 1
v 68 7
v 69 2
v 70 6
v 71 12
v 72 5
v 73 8
v 74 7
v 75 1
v 76 2
v 77 6
v 78 4
v 79 3
v 80 0
v 81 14
v 82 7
v 83 9
v 84 6
v 85 11
v 86 10
v 87 12
v 88 8
v 89 13
v 90 15
v 91 4
v 92 2
v 93 10
v 94 8
v 95 12
v 96 6
v 97 7
v 98 3
v 99 0
v 100 5
